language ESSENCE' 1.0

letting demand_Function1D be
        [50, 53, 55, 60, 85, 90, 100, 100, 105, 110, 137, 140, 140, 140, 150, 150, 150, 150, 150, 150, 150, 150, 168,
         170, 170, 195, 195, 200, 200, 200, 210, 210, 225, 230, 230, 230, 250, 250, 250, 250, 250, 250, 250, 250, 265,
         270, 270, 375, 375, 405;
             int(1..50)]
letting n_variations be 50
letting n_templates be 3
letting n_slots be 40
letting fin1 be 50
letting fin2 be 50
letting fin3 be 405
